
List of user-set options:

                                    Name   Value                used
                           compl_inf_tol = 1                     yes
                         constr_viol_tol = 1                     yes
                            dual_inf_tol = 1000                  yes
                           linear_solver = ma97                  yes
                              ma86_small = 1e-30                  no
                                  ma86_u = 0.0001                 no
                              ma97_order = best                  yes
                              ma97_small = 1e-30                 yes
                            ma97_switch1 = at_start              yes
                            ma97_switch2 = od_hd_reuse           yes
                                  ma97_u = 1e-06                 yes
                               ma97_umax = 0.5                   yes
                                max_iter = 1000                  yes
                    max_refinement_steps = 20                    yes
                    min_refinement_steps = 5                     yes
                                 mu_init = 1e-06                 yes
           mu_superlinear_decrease_power = 1.25                  yes
                   nlp_scaling_min_value = 1e-08                 yes
                        option_file_name = Preset_Case:_984_NCP.opt  yes
                             output_file = ./tmp/Preset_Case:_984_NCP.output  yes
                      print_user_options = yes                   yes
        required_infeasibility_reduction = 1                      no
                                     tol = 1e-08                 yes
                   warm_start_bound_frac = 1e-20                 yes
                   warm_start_bound_push = 1e-20                 yes
                   warm_start_init_point = yes                   yes
              warm_start_mult_bound_push = 1e-20                 yes
                warm_start_mult_init_max = 1e+40                 yes
             warm_start_slack_bound_frac = 1e-20                 yes
             warm_start_slack_bound_push = 1e-20                 yes

******************************************************************************
This program contains Ipopt, a library for large-scale nonlinear optimization.
 Ipopt is released as open source code under the Eclipse Public License (EPL).
         For more information visit http://projects.coin-or.org/Ipopt
******************************************************************************

This is Ipopt version 3.12.10, running with linear solver ma97.

Number of nonzeros in equality constraint Jacobian...:   117167
Number of nonzeros in inequality constraint Jacobian.:      213
Number of nonzeros in Lagrangian Hessian.............:    47513

Total number of variables............................:    29977
                     variables with only lower bounds:    11312
                variables with lower and upper bounds:    15135
                     variables with only upper bounds:        0
Total number of equality constraints.................:    29864
Total number of inequality constraints...............:       25
        inequality constraints with only lower bounds:        4
   inequality constraints with lower and upper bounds:        0
        inequality constraints with only upper bounds:       21

iter    objective    inf_pr   inf_du lg(mu)  ||d||  lg(rg) alpha_du alpha_pr  ls
   0 -1.4590736e-01 3.33e-01 2.00e+00  -6.0 0.00e+00    -  0.00e+00 0.00e+00   0
In iteration 0, 9 Slacks too small, adjusting variable bounds
   1 -1.4590736e-01 3.33e-01 2.37e+02  -6.0 1.06e+10    -  2.36e-14 4.50e-19h  1
   2 -1.4590643e-01 3.33e-01 2.37e+02  -6.0 2.17e+02    -  9.38e-08 2.10e-05f  1
   3 -1.4590642e-01 3.33e-01 2.39e+02  -6.0 6.36e+01    -  1.65e-02 7.22e-07h  2
   4 -1.4590442e-01 3.33e-01 2.39e+02  -6.0 2.13e+02    -  6.39e-05 4.74e-05h  1
   5 -1.4569871e-01 3.31e-01 2.43e+02  -6.0 1.80e+02    -  3.17e-02 4.99e-03h  1
   6 -1.4471115e-01 3.24e-01 2.35e+02  -6.0 2.01e+02    -  4.28e-03 2.20e-02h  2
   7 -1.4353250e-01 3.15e-01 2.30e+02  -6.0 1.44e+02    -  3.90e-02 2.85e-02h  2
   8 -1.4260228e-01 3.07e-01 2.31e+02  -6.0 1.42e+02    -  6.13e-02 2.37e-02h  3
   9 -1.4159529e-01 3.00e-01 2.35e+02  -6.0 1.45e+02    -  1.02e-01 2.31e-02h  3
iter    objective    inf_pr   inf_du lg(mu)  ||d||  lg(rg) alpha_du alpha_pr  ls
  10 -1.4079514e-01 2.94e-01 2.44e+02  -6.0 1.33e+02    -  1.22e-01 2.16e-02h  3
  11 -1.3996264e-01 2.87e-01 2.48e+02  -6.0 1.29e+02    -  8.06e-02 2.21e-02h  3
  12 -1.3839512e-01 2.75e-01 2.59e+02  -6.0 1.28e+02    -  1.83e-01 4.29e-02h  2
  13 -1.3707082e-01 2.64e-01 2.78e+02  -6.0 1.23e+02    -  2.46e-01 3.83e-02h  2
  14 -1.3559245e-01 2.53e-01 7.07e+02  -6.0 1.28e+02    -  1.77e-01 4.30e-02h  2
  15 -1.3394314e-01 2.41e-01 1.61e+03  -6.0 1.30e+02    -  1.59e-01 4.90e-02h  2
  16 -1.2868478e-01 2.24e-01 1.42e+03  -6.0 1.30e+02    -  1.68e-01 1.62e-01w  1
  17 -1.2387444e-01 2.62e-01 2.13e+04  -6.0 1.26e+02    -  2.48e-02 1.52e-01w  1
  18 -1.2281416e-01 2.54e-01 2.04e+04  -6.0 1.24e+02    -  1.70e-02 4.17e-02w  1
  19 -1.3262855e-01 2.31e-01 2.80e+03  -6.0 1.18e+02    -  1.68e-01 4.06e-02h  2
iter    objective    inf_pr   inf_du lg(mu)  ||d||  lg(rg) alpha_du alpha_pr  ls
  20 -1.3009965e-01 2.12e-01 3.58e+03  -6.0 1.37e+02    -  1.97e-02 8.13e-02h  1
  21 -1.2742728e-01 1.95e-01 2.64e+03  -6.0 1.31e+02    -  9.78e-02 8.02e-02h  2
  22 -1.2577715e-01 1.85e-01 2.50e+03  -6.0 1.31e+02    -  9.85e-02 5.34e-02h  2
  23 -1.2419537e-01 1.76e-01 2.38e+03  -6.0 1.42e+02    -  1.09e-01 4.76e-02h  3
  24 -1.2171484e-01 1.62e-01 2.18e+03  -6.0 1.41e+02    -  5.06e-02 7.91e-02h  3
  25 -1.1868588e-01 1.45e-01 1.94e+03  -6.0 1.35e+02    -  1.61e-01 1.05e-01h  3
  26 -1.1401917e-01 1.17e-01 1.56e+03  -6.0 1.25e+02    -  1.49e-01 1.91e-01H  1
  27 -1.1109088e-01 9.85e-02 1.31e+03  -6.0 9.89e+01    -  3.99e-01 1.60e-01h  3
  28 -1.0699951e-01 6.65e-02 8.76e+02  -6.0 9.70e+01    -  4.18e-01 3.25e-01H  1
  29 -1.0637525e-01 6.01e-02 7.92e+02  -6.0 5.61e+01    -  5.40e-01 9.56e-02h  3
iter    objective    inf_pr   inf_du lg(mu)  ||d||  lg(rg) alpha_du alpha_pr  ls
  30 -1.0622961e-01 5.54e-02 7.32e+02  -6.0 1.50e+02    -  4.77e-01 7.81e-02h  3
  31 -1.0599416e-01 5.39e-02 7.07e+02  -6.0 1.44e+01  -4.0 1.38e-01 2.68e-02h  4
  32 -1.0553760e-01 5.09e-02 6.67e+02  -6.0 1.56e+01  -3.6 4.28e-02 5.58e-02h  2
  33 -1.0529733e-01 5.46e-02 6.41e+02  -6.0 1.20e+01  -4.1 5.76e-01 4.07e-02h  4
  34 -1.0558286e-01 5.65e-02 5.99e+02  -6.0 3.38e+01  -4.5 2.75e-02 6.56e-02h  3
  35 -1.0542041e-01 6.11e-02 5.62e+02  -6.0 1.28e+01  -4.1 3.35e-01 6.03e-02h  4
  36 -1.0548953e-01 5.40e-02 5.08e+02  -6.0 2.70e+01  -4.6 1.62e-01 9.49e-02h  2
  37 -1.0542524e-01 6.61e-02 4.60e+02  -6.0 1.22e+01  -4.2 5.67e-01 9.53e-02h  4
  38 -1.0572301e-01 6.60e-02 4.45e+02  -6.0 4.22e+01  -4.6 6.75e-02 3.24e-02h  4
  39 -1.0537573e-01 6.72e-02 4.41e+02  -6.0 1.42e+02  -4.2 3.82e-02 6.63e-03w  1
iter    objective    inf_pr   inf_du lg(mu)  ||d||  lg(rg) alpha_du alpha_pr  ls
  40 -1.0633004e-01 1.89e+00 1.24e+02  -6.0 1.20e+01  -4.7 4.43e-01 7.48e-01w  1
  41 -1.2028597e-01 1.97e+00 2.66e+02  -6.0 2.36e+01  -5.2 2.81e-02 9.59e-01w  1
  42 -1.0563619e-01 6.60e-02 4.43e+02  -6.0 4.17e+01  -5.6 3.82e-02 1.66e-03h  2
  43 -1.0559949e-01 8.62e-02 4.02e+02  -6.0 1.10e+01  -4.3 7.75e-01 9.55e-02h  2
  44 -1.0556055e-01 1.04e-01 3.49e+02  -6.0 9.12e+00  -3.9 2.96e-03 1.31e-01h  3
  45 -1.0635936e-01 9.78e-02 2.93e+02  -6.0 1.25e+01  -4.4 2.38e-01 1.59e-01h  3
  46 -1.0645638e-01 9.81e-02 2.72e+02  -6.0 8.53e+00  -3.9 4.44e-01 7.05e-02h  1
  47 -1.0780077e-01 1.26e-01 2.45e+02  -6.0 1.80e+01  -4.4 3.21e-04 1.01e-01f  3
  48 -1.0783597e-01 1.24e-01 2.41e+02  -6.0 7.65e+00  -4.0 6.42e-01 1.73e-02h  1
  49 -1.0774945e-01 1.66e-01 1.43e+02  -6.0 6.61e+00  -3.6 9.66e-01 4.12e-01H  1
iter    objective    inf_pr   inf_du lg(mu)  ||d||  lg(rg) alpha_du alpha_pr  ls
  50 -1.0820196e-01 1.75e-01 8.96e+01  -6.0 4.63e+00  -4.0 7.63e-01 3.66e-01h  1
  51 -1.1340730e-01 3.79e-02 5.49e+01  -6.0 3.83e+00  -4.5 8.84e-01 8.23e-01H  1
  52 -1.2667094e-01 8.16e-02 3.17e+01  -6.0 9.59e+00  -5.0 1.70e-01 8.11e-01H  1
  53 -1.2941321e-01 8.89e-02 2.93e+01  -6.0 3.75e+01  -5.5 1.03e-01 7.46e-02f  1
  54 -1.3678656e-01 4.09e-01 2.88e+01  -6.0 1.16e+02  -5.9 1.20e-04 6.75e-02h  1
  55 -1.3858203e-01 4.41e-01 2.70e+01  -6.0 2.67e+01  -5.5 6.83e-04 5.69e-02h  3
  56 -1.5400219e-01 4.64e+00 4.99e+01  -6.0 7.28e+01  -6.0 1.41e-01 1.93e-01h  1
  57 -1.6307532e-01 4.36e+00 5.37e+01  -6.0 1.97e+01  -5.6 1.65e-01 3.38e-01h  1
  58 -1.6500086e-01 3.89e+00 5.15e+01  -6.0 7.77e+01  -6.0 1.46e-01 1.07e-01h  1
  59 -1.7403175e-01 2.11e+00 1.38e+02  -6.0 1.85e+02  -6.5 3.47e-01 2.69e-01h  1
iter    objective    inf_pr   inf_du lg(mu)  ||d||  lg(rg) alpha_du alpha_pr  ls
  60 -1.7411326e-01 2.09e+00 1.29e+02  -6.0 6.87e+01  -6.1 6.43e-01 7.50e-03h  1
  61 -1.7737166e-01 4.27e+00 2.97e+02  -6.0 1.90e+02  -6.6 4.94e-01 1.58e-01h  1
  62 -1.8095500e-01 9.75e+00 1.09e+02  -6.0 6.20e+01  -6.1 6.38e-01 6.25e-01h  1
  63 -1.8339117e-01 1.49e+01 6.96e+01  -6.0 2.21e+02  -6.6 4.99e-01 1.45e-01h  1
  64 -1.8402544e-01 1.37e+01 5.99e+01  -6.0 7.49e+01  -6.2 1.00e+00 1.13e-01h  1
  65 -1.8452630e-01 1.31e+01 3.57e+01  -6.0 1.49e+02  -6.7 8.44e-01 4.32e-02h  1
  66 -1.8546884e-01 1.09e+01 2.51e+01  -6.0 1.20e+02  -7.2 4.85e-01 1.71e-01h  1
  67 -1.8764287e-01 7.39e-01 1.30e+01  -6.0 5.44e+01  -6.7 1.00e+00 9.29e-01h  1
  68 -1.8976518e-01 4.11e+00 2.09e+01  -6.0 7.95e+02  -7.2 1.54e-03 1.66e-01h  1
  69 -1.8965523e-01 3.66e+00 5.07e+01  -6.0 1.29e+02  -6.8 1.00e+00 1.32e-01h  1
iter    objective    inf_pr   inf_du lg(mu)  ||d||  lg(rg) alpha_du alpha_pr  ls
  70 -1.9411255e-01 2.95e-01 6.61e+00  -6.0 1.21e+02  -7.3 8.89e-01 1.00e+00h  1
  71 -1.9712147e-01 5.58e-01 7.29e+00  -6.0 3.59e+02  -7.7 6.79e-01 4.74e-01h  1
  72 -1.9920541e-01 2.68e-01 1.15e+00  -6.0 1.31e+02  -7.3 1.00e+00 1.00e+00h  1
  73 -2.0330539e-01 1.40e+00 6.62e+00  -6.0 3.68e+02  -7.8 1.00e+00 7.99e-01h  1
  74 -2.0437147e-01 5.50e-01 7.65e+00  -6.0 1.25e+02  -7.4 1.00e+00 6.92e-01h  1
  75 -2.0527252e-01 7.02e-01 1.25e+02  -6.0 3.42e+02  -7.8 1.27e-02 1.87e-01h  1
  76 -2.0556838e-01 4.34e-01 7.25e+01  -6.0 4.73e+01  -6.5 2.78e-01 1.52e-01h  1
  77 -2.0589744e-01 3.60e-01 6.08e+01  -6.0 6.16e+01  -7.0 4.98e-01 1.76e-01h  1
  78 -2.0681491e-01 5.38e-01 4.46e+01  -6.0 1.74e+02  -7.5 2.75e-01 3.06e-01h  1
  79 -2.0986708e-01 1.11e+00 4.57e+01  -6.0 4.90e+02  -7.9 6.99e-03 5.03e-01h  1
iter    objective    inf_pr   inf_du lg(mu)  ||d||  lg(rg) alpha_du alpha_pr  ls
  80 -2.1194997e-01 1.63e+00 3.75e+01  -6.0 1.41e+03  -8.4 3.14e-01 1.46e-01h  1
  81 -2.1407329e-01 1.55e+00 8.75e+01  -6.0 4.84e+02  -8.0 8.01e-01 3.75e-01h  1
  82 -2.1487231e-01 1.56e+00 7.77e+01  -6.0 1.26e+03  -8.5 3.61e-02 6.31e-02h  1
  83 -2.1499203e-01 1.51e+00 7.69e+01  -6.0 4.65e+02  -8.0 1.74e-02 3.22e-02h  1
  84 -2.1601188e-01 1.57e+00 7.40e+01  -6.0 1.31e+03  -8.5 7.52e-03 7.87e-02h  1
  85 -2.1714268e-01 1.33e+00 5.13e+01  -6.0 4.04e+02  -8.1 3.54e-01 2.62e-01h  1
  86 -2.1753297e-01 1.33e+00 4.53e+01  -6.0 2.64e+03  -8.6 1.95e-01 1.97e-02h  1
  87 -2.2083429e-01 1.96e+00 2.08e+01  -6.0 5.42e+02  -8.1 3.76e-01 6.17e-01f  1
  88 -2.2136441e-01 1.59e+00 2.12e+03  -6.0 2.13e+02  -7.7 1.00e+00 2.08e-01h  1
  89 -2.2328580e-01 1.69e+00 1.93e+02  -6.0 7.86e+02  -8.2 4.97e-01 2.13e-01h  1
iter    objective    inf_pr   inf_du lg(mu)  ||d||  lg(rg) alpha_du alpha_pr  ls
  90 -2.2451869e-01 1.10e+01 1.86e+02  -6.0 4.15e+02  -7.8 1.66e-01 4.05e-01h  1
  91 -2.2471719e-01 1.07e+01 1.85e+02  -6.0 6.13e+02  -8.2 3.30e-01 2.53e-02h  1
  92 -2.2582175e-01 1.01e+01 1.72e+02  -6.0 2.20e+03  -7.8 1.82e-02 1.45e-01h  1
  93 -2.2589509e-01 9.96e+00 1.70e+02  -6.0 6.08e+02  -8.3 2.50e-03 1.14e-02h  1
  94 -2.2599988e-01 1.04e+01 1.41e+02  -6.0 7.95e+01  -7.0 3.13e-01 5.32e-02f  1
  95 -2.2812913e-01 2.25e+01 1.41e+01  -6.0 1.21e+02  -7.4 6.38e-01 1.00e+00f  1
  96 -2.2923320e-01 1.40e+01 1.91e+01  -6.0 2.79e+02  -7.9 1.00e+00 3.78e-01h  1
  97 -2.3078345e-01 9.13e+00 2.01e+01  -6.0 6.24e+02  -8.4 4.39e-01 3.43e-01h  1
  98 -2.3414576e-01 5.93e+00 3.01e+01  -6.0 1.30e+03  -8.9 4.87e-01 3.68e-01h  1
  99 -2.3433070e-01 5.23e+00 2.58e+01  -6.0 3.26e+02  -8.4 2.16e-01 1.19e-01h  1
iter    objective    inf_pr   inf_du lg(mu)  ||d||  lg(rg) alpha_du alpha_pr  ls
 100 -2.3588881e-01 4.69e+00 2.23e+01  -6.0 1.24e+03  -8.9 2.75e-01 3.70e-01h  1
 101 -2.3648155e-01 3.37e+00 1.64e+01  -6.0 4.98e+02  -8.5 3.26e-01 4.49e-01h  1
 102 -2.3692108e-01 4.59e-01 1.78e+00  -6.0 1.68e+02  -8.1 1.00e+00 1.00e+00h  1
 103 -2.3904000e-01 7.53e+00 3.48e+01  -6.0 6.92e+02  -8.6 8.79e-01 1.00e+00h  1
 104 -2.4022266e-01 1.85e+00 5.96e+00  -6.0 2.99e+02  -8.1 1.00e+00 1.00e+00h  1
 105 -2.4391944e-01 1.99e+01 1.09e+02  -6.0 1.10e+03  -8.6 1.45e-01 1.00e+00h  1
 106 -2.4432661e-01 1.94e+01 1.30e+02  -6.0 1.19e+03  -8.2 3.25e-02 2.69e-02h  1
 107 -2.4440026e-01 1.70e+01 9.63e+01  -6.0 3.34e+01  -6.8 2.69e-01 3.76e-01h  1
 108 -2.4441069e-01 1.66e+01 6.70e+01  -6.0 1.08e+02  -7.3 2.94e-01 2.90e-02h  4
 109 -2.4441098e-01 1.66e+01 1.23e+02  -6.0 1.43e+01  -6.0 7.05e-01 1.47e-03h  1
iter    objective    inf_pr   inf_du lg(mu)  ||d||  lg(rg) alpha_du alpha_pr  ls
 110 -2.4405429e-01 6.68e+00 4.18e+01  -6.0 1.71e+01  -6.5 3.62e-01 1.00e+00h  1
 111 -2.4417999e-01 3.78e+00 1.48e+01  -6.0 1.50e+01  -6.9 7.21e-01 4.40e-01h  1
 112 -2.4439137e-01 2.56e+00 4.28e+01  -6.0 3.75e+01  -7.4 1.00e+00 6.88e-01h  1
 113 -2.4484585e-01 7.01e+00 6.77e+00  -6.0 1.14e+02  -7.9 1.00e+00 8.15e-01h  1
 114 -2.4597094e-01 6.52e+00 2.32e+01  -6.0 2.78e+02  -8.4 8.73e-01 1.00e+00h  1
 115 -2.4802108e-01 6.54e+00 2.56e+01  -6.0 4.01e+02  -8.9 1.00e+00 9.40e-01h  1
 116 -2.4957096e-01 8.75e+00 2.01e+01  -6.0 2.39e+03  -9.3 2.56e-01 2.51e-01h  1
 117 -2.5177815e-01 7.17e+00 3.51e+01  -6.0 5.67e+02  -8.9 1.00e+00 1.00e+00h  1
 118 -2.5439707e-01 2.60e+01 4.30e+01  -6.0 3.06e+03  -9.4 1.75e-02 3.50e-01h  1
 119 -2.5508235e-01 2.57e+01 4.61e+01  -6.0 2.65e+04  -9.9 7.98e-03 9.70e-03h  1
iter    objective    inf_pr   inf_du lg(mu)  ||d||  lg(rg) alpha_du alpha_pr  ls
 120 -2.5519481e-01 2.27e+01 5.62e+01  -6.0 7.59e+02  -9.4 1.59e-01 1.25e-01h  1
 121 -2.5580542e-01 1.79e+01 7.61e+01  -6.0 2.21e+03  -9.9 5.43e-02 2.70e-01h  1
 122 -2.5662641e-01 1.05e+01 4.37e+01  -6.0 2.45e+03 -10.4 4.51e-01 4.21e-01h  1
 123 -2.5671588e-01 5.47e+00 2.22e+01  -6.0 3.57e+02  -9.1 3.08e-01 4.79e-01h  1
 124 -2.5694548e-01 3.03e+00 1.23e+01  -6.0 5.45e+02  -9.5 4.46e-01 4.47e-01h  1
 125 -2.5725912e-01 4.43e+00 1.17e+01  -6.0 1.00e+03 -10.0 2.63e-01 1.00e+00h  1
 126 -2.5715891e-01 3.93e+00 1.10e+01  -6.0 4.68e+02  -7.8 6.64e-02 1.13e-01h  1
 127 -2.5706844e-01 6.07e-03 3.23e-01  -6.0 1.01e+02  -8.3 1.00e+00 1.00e+00h  1
 128 -2.5721126e-01 1.38e-02 2.27e+00  -6.0 1.14e+02  -8.7 1.00e+00 1.00e+00h  1
 129 -2.5723232e-01 1.78e-02 4.18e+00  -6.0 1.66e+02  -9.2 4.36e-01 2.70e-01h  1
iter    objective    inf_pr   inf_du lg(mu)  ||d||  lg(rg) alpha_du alpha_pr  ls
 130 -2.5723095e-01 2.68e-02 1.68e+00  -6.0 5.01e+02  -9.7 1.63e-01 1.21e-01h  1
 131 -2.5726836e-01 1.38e-01 7.08e+00  -6.0 1.80e+03 -10.2 4.36e-01 1.76e-01f  1
 132 -2.5724842e-01 5.68e+00 1.36e+00  -6.0 6.10e+02  -9.7 9.33e-01 1.00e+00h  1
 133 -2.5738114e-01 2.55e+00 8.50e+00  -6.0 2.54e+02  -9.3 5.49e-01 6.21e-01h  1
 134 -2.5738109e-01 1.78e-01 1.63e+01  -6.0 1.01e+02  -8.9 6.00e-03 1.00e+00h  1
 135 -2.5746465e-01 3.22e+00 9.36e+00  -6.0 4.38e+02  -9.4 7.93e-01 1.00e+00h  1
 136 -2.5756269e-01 1.36e+00 7.11e+01  -6.0 2.39e+02  -8.9 8.57e-02 7.55e-01h  1
 137 -2.5755002e-01 1.35e+00 7.05e+01  -6.0 1.24e+03  -9.4 2.18e-04 7.81e-03h  3
 138 -2.5757545e-01 1.32e+00 6.63e+01  -6.0 9.33e+01  -7.2 4.81e-02 2.60e-02h  1
 139 -2.5808811e-01 2.07e+01 3.51e+01  -6.0 5.05e+01  -7.7 3.68e-01 1.00e+00f  1
iter    objective    inf_pr   inf_du lg(mu)  ||d||  lg(rg) alpha_du alpha_pr  ls
 140 -2.5818167e-01 2.09e+01 3.11e+01  -6.0 9.13e+01  -7.2 1.48e-01 8.07e-02h  1
 141 -2.5842568e-01 4.61e+01 6.48e+01  -6.0 1.34e+02  -7.7 1.70e-01 2.12e-01h  1
 142 -2.5841731e-01 2.72e+01 6.19e+01  -6.0 4.12e+01  -8.2 1.00e+00 4.45e-01h  1
 143 -2.5847780e-01 5.58e+00 1.37e+01  -6.0 1.35e+02  -8.7 6.27e-01 7.93e-01h  1
 144 -2.5861344e-01 2.29e+00 3.17e+01  -6.0 5.10e+02  -9.1 7.31e-01 5.89e-01h  1
 145 -2.5866254e-01 3.07e+00 3.66e+01  -6.0 5.44e+03  -9.6 6.57e-02 5.35e-02h  1
 146 -2.5889369e-01 5.85e+00 1.36e+02  -6.0 1.13e+03 -10.1 8.28e-01 6.11e-01h  1
 147 -2.5903241e-01 4.19e+01 2.05e+02  -6.0 1.64e+04    -  1.58e-01 1.07e-01h  1
 148 -2.5927916e-01 3.84e+01 1.95e+02  -6.0 8.05e+03    -  2.20e-01 2.03e-01h  1
 149 -2.5944906e-01 5.08e+01 1.32e+02  -6.0 8.25e+03    -  8.37e-02 2.18e-01h  1
iter    objective    inf_pr   inf_du lg(mu)  ||d||  lg(rg) alpha_du alpha_pr  ls
 150 -2.5959881e-01 6.03e+01 1.82e+03  -6.0 5.16e+03    -  5.53e-02 3.53e-01h  1
 151 -2.5983724e-01 3.30e+01 3.07e+03  -6.0 1.18e+03    -  9.21e-04 4.96e-01h  1
 152 -2.6012077e-01 1.80e+01 3.36e+03  -6.0 8.14e+02    -  3.05e-01 5.14e-01h  1
 153 -2.6013547e-01 6.33e+00 3.29e+05  -6.0 5.17e+02    -  9.96e-03 7.43e-01h  1
 154 -2.6035332e-01 6.28e+00 3.26e+05  -6.0 1.71e+04    -  1.29e-02 8.25e-03f  1
 155 -2.6025761e-01 5.13e+00 2.66e+05  -6.0 1.57e+03    -  1.83e-03 1.85e-01h  1
 156 -2.6021913e-01 4.36e+00 1.11e+03  -6.0 7.04e+02    -  5.87e-01 1.00e+00H  1
 157 -2.6019656e-01 1.32e+00 5.66e+02  -6.0 2.69e+02  -8.8 2.93e-01 1.00e+00h  1
 158 -2.6018522e-01 2.15e-01 2.70e+02  -6.0 4.91e+00  -7.4 5.07e-01 1.00e+00h  1
 159 -2.6018596e-01 2.90e+00 2.39e+01  -6.0 9.94e+00  -7.9 9.11e-01 9.26e-01h  1
iter    objective    inf_pr   inf_du lg(mu)  ||d||  lg(rg) alpha_du alpha_pr  ls
 160 -2.6024719e-01 4.98e-01 2.84e+00  -6.0 2.10e+01  -8.4 1.00e+00 1.00e+00h  1
 161 -2.6033350e-01 8.16e-01 2.55e+00  -6.0 6.48e+01  -8.9 6.65e-01 9.02e-01h  1
 162 -2.6035532e-01 9.40e-01 6.32e-01  -6.0 2.30e+02  -9.4 1.00e+00 1.00e+00h  1
 163 -2.6038155e-01 7.53e+00 5.12e+01  -6.0 4.60e+03  -9.8 4.87e-02 1.33e-01h  2
 164 -2.6038948e-01 4.31e+00 2.60e+01  -6.0 5.39e+02 -10.3 4.93e-01 4.95e-01h  1
 165 -2.6038903e-01 3.22e+00 2.34e+01  -6.0 3.63e+02  -9.9 5.46e-01 2.53e-01h  1
 166 -2.6039348e-01 1.86e+00 1.81e+01  -6.0 7.40e+02 -10.4 1.00e+00 4.29e-01h  1
 167 -2.6039379e-01 1.25e+00 1.19e+01  -6.0 5.47e+02    -  2.26e-01 3.32e-01h  1
 168 -2.6039352e-01 9.80e-01 9.10e+00  -6.0 5.47e+02  -9.9 1.27e-01 2.25e-01h  1
 169 -2.6039495e-01 3.70e+00 4.68e+00  -6.0 7.96e+02 -10.4 1.00e+00 6.74e-01h  1
iter    objective    inf_pr   inf_du lg(mu)  ||d||  lg(rg) alpha_du alpha_pr  ls
 170 -2.6039562e-01 2.35e+00 5.11e+00  -6.0 5.97e+02    -  1.61e-01 3.85e-01h  1
 171 -2.6039565e-01 2.17e+00 1.05e+01  -6.0 7.10e+02    -  1.00e+00 7.81e-02h  1
 172 -2.6039620e-01 5.09e-01 7.16e+00  -6.0 1.94e+02    -  3.79e-03 1.00e+00h  1
 173 -2.6039592e-01 2.77e-01 4.62e+00  -6.0 1.54e+02    -  3.56e-02 1.00e+00h  1
 174 -2.6039608e-01 1.51e-04 2.79e-05  -6.0 3.87e+00    -  1.00e+00 1.00e+00h  1
 175 -2.6039548e-01 6.67e-01 4.51e+01  -6.0 9.02e+03    -  3.26e-01 2.65e-02h  2
 176 -2.6039466e-01 5.82e-01 4.95e+00  -6.0 3.17e+02    -  1.00e+00 3.79e-01h  2
 177 -2.6039495e-01 5.71e-02 9.26e-04  -6.0 7.08e+01    -  1.00e+00 1.00e+00h  1
 178 -2.6039497e-01 2.75e-04 1.29e-05  -6.0 4.94e+00    -  1.00e+00 1.00e+00h  1
 179 -2.6039497e-01 5.57e-10 5.65e-11  -6.0 7.13e-03    -  1.00e+00 1.00e+00h  1
iter    objective    inf_pr   inf_du lg(mu)  ||d||  lg(rg) alpha_du alpha_pr  ls
 180 -2.6092261e-01 1.88e+00 3.70e+01  -7.5 2.06e+03    -  3.55e-01 2.25e-01f  1
 181 -2.6099111e-01 1.86e+00 5.70e+01  -7.5 2.08e+03    -  1.59e-01 4.19e-02h  1
 182 -2.6100885e-01 1.83e+00 1.15e+02  -7.5 1.78e+02  -9.1 3.92e-01 1.50e-02h  1
 183 -2.6146555e-01 5.55e+00 7.30e+01  -7.5 2.54e+03    -  4.06e-03 2.88e-01h  1
 184 -2.6151686e-01 5.17e+00 8.25e+01  -7.5 1.88e+02  -9.6 4.10e-01 6.76e-02h  1
 185 -2.6161748e-01 4.85e+00 6.89e+01  -7.5 2.47e+03    -  1.94e-02 1.07e-01h  1
 186 -2.6163718e-01 4.70e+00 7.05e+01  -7.5 4.05e+02 -10.0 9.62e-02 2.94e-02h  1
 187 -2.6165251e-01 4.60e+00 6.88e+01  -7.5 8.20e+02 -10.5 2.19e-02 2.27e-02h  1
 188 -2.6169402e-01 4.35e+00 6.34e+01  -7.5 1.36e+03 -11.0 3.01e-02 5.87e-02h  1
 189 -2.6193767e-01 4.63e+00 3.52e+01  -7.5 2.12e+03    -  4.29e-02 3.37e-01h  1
iter    objective    inf_pr   inf_du lg(mu)  ||d||  lg(rg) alpha_du alpha_pr  ls
 190 -2.6205573e-01 3.62e+00 4.12e+01  -7.5 1.49e+03    -  5.80e-01 2.56e-01h  1
 191 -2.6219941e-01 3.71e+00 2.03e+01  -7.5 1.57e+03    -  1.81e-01 4.47e-01h  1
 192 -2.6222203e-01 3.27e+00 5.17e+01  -7.5 1.38e+03 -11.5 5.74e-01 1.24e-01h  1
 193 -2.6229771e-01 1.07e+01 1.34e+01  -7.5 2.74e+03 -11.9 9.00e-02 3.48e-01h  1
 194 -2.6230659e-01 1.02e+01 1.17e+02  -7.5 1.62e+03    -  6.06e-01 5.37e-02h  1
 195 -2.6236484e-01 5.98e+00 3.69e+01  -7.5 7.21e+02    -  1.43e-01 4.40e-01h  1
 196 -2.6236527e-01 5.95e+00 2.22e+02  -7.5 2.55e+03    -  5.90e-01 5.05e-03h  1
 197 -2.6236746e-01 5.80e+00 2.33e+02  -7.5 2.79e+03 -12.4 1.47e-01 2.57e-02h  1
 198r-2.6236746e-01 5.80e+00 9.99e+02   0.5 0.00e+00 -12.0 0.00e+00 2.73e-08R  2
 199r-2.6236437e-01 5.79e+00 3.14e+04   0.5 5.36e+08    -  1.25e-10 2.49e-08f  1
iter    objective    inf_pr   inf_du lg(mu)  ||d||  lg(rg) alpha_du alpha_pr  ls
 200 -2.6237511e-01 5.66e+00 5.86e+03  -7.5 3.70e+04    -  1.43e-05 2.46e-02h  1
 201 -2.6245065e-01 6.51e+00 5.47e+03  -7.5 2.55e+04    -  9.86e-05 6.62e-02f  1
 202 -2.6267915e-01 1.08e+01 3.92e+03  -7.5 1.16e+04    -  3.05e-02 2.81e-01h  1
 203 -2.6298181e-01 8.57e+01 1.09e+03  -7.5 6.74e+03    -  4.20e-04 7.22e-01h  1
 204 -2.6291146e-01 6.16e+01 6.42e+02  -7.5 2.99e+03    -  1.68e-03 4.08e-01h  1
 205 -2.6287728e-01 5.72e+01 5.73e+02  -7.5 4.05e+03    -  4.63e-01 1.08e-01h  1
 206 -2.6264659e-01 1.24e+01 8.23e+02  -7.5 1.51e+03    -  3.05e-01 7.86e-01h  1
 207 -2.6263713e-01 1.05e+01 2.68e+02  -7.5 3.29e+02    -  2.44e-01 1.55e-01h  1
 208 -2.6253135e-01 6.75e-01 4.79e+06  -7.5 2.92e+02    -  7.03e-04 1.00e+00h  1
 209 -2.6256885e-01 7.65e-01 3.14e+06  -7.5 5.65e+02    -  9.75e-01 3.44e-01h  1
iter    objective    inf_pr   inf_du lg(mu)  ||d||  lg(rg) alpha_du alpha_pr  ls
 210 -2.6257288e-01 3.70e+00 1.57e+06  -7.5 7.08e+02 -10.7 2.47e-02 5.00e-01h  2
 211 -2.6256889e-01 3.24e+00 1.38e+06  -7.5 6.50e+02    -  1.22e-01 1.25e-01h  4
 212 -2.6253812e-01 1.94e-01 1.73e+02  -7.5 7.54e+01 -11.1 3.47e-01 1.00e+00h  1
 213 -2.6253124e-01 1.01e-02 2.13e-01  -7.5 2.36e+01 -10.7 1.00e+00 1.00e+00h  1
 214 -2.6253049e-01 3.88e-04 2.47e-04  -7.5 6.80e+01 -11.2 1.00e+00 1.00e+00H  1
 215 -2.6253059e-01 1.13e-02 6.51e-04  -7.5 1.97e+02 -11.7 1.00e+00 1.00e+00H  1
 216 -2.6253103e-01 2.45e-03 9.59e-03  -7.5 6.52e+02 -12.1 1.00e+00 1.00e+00H  1
 217 -2.6253106e-01 2.56e-02 1.17e+00  -7.5 3.56e+03 -12.6 7.41e-01 1.22e-02h  7
 218 -2.6253107e-01 3.14e-02 4.12e+00  -7.5 7.69e+03    -  1.00e+00 2.82e-03h  8
 219 -2.6253127e-01 1.74e-02 1.02e-02  -7.5 4.43e+02    -  1.00e+00 1.00e+00H  1
iter    objective    inf_pr   inf_du lg(mu)  ||d||  lg(rg) alpha_du alpha_pr  ls
 220 -2.6253212e-01 1.26e+01 2.78e-02  -7.5 9.97e+02 -12.2 1.00e+00 1.00e+00h  1
 221 -2.6253421e-01 8.02e+00 2.40e+00  -7.5 4.01e+03 -12.7 2.74e-02 7.67e-01H  1
 222 -2.6253338e-01 1.05e-02 1.01e-03  -7.5 3.87e+00  -8.6 1.00e+00 1.00e+00h  1
 223 -2.6253372e-01 1.17e-04 2.33e-05  -7.5 1.14e+00  -9.1 1.00e+00 1.00e+00h  1
 224 -2.6253379e-01 1.01e-03 8.51e-07  -7.5 3.36e+00  -9.6 1.00e+00 1.00e+00h  1
 225 -2.6253380e-01 8.07e-03 3.41e-06  -7.5 9.57e+00 -10.1 1.00e+00 1.00e+00h  1
 226 -2.6253382e-01 4.87e-02 2.46e-05  -7.5 2.57e+01 -10.5 1.00e+00 1.00e+00h  1
 227 -2.6253386e-01 1.87e-01 1.67e-04  -7.5 6.67e+01 -11.0 1.00e+00 1.00e+00h  1
 228 -2.6253397e-01 5.12e-01 1.33e-03  -7.5 1.86e+02 -11.5 1.00e+00 1.00e+00h  1
 229 -2.6253445e-01 7.89e+00 2.28e-01  -7.5 7.34e+02 -12.0 4.80e-01 1.00e+00h  1
iter    objective    inf_pr   inf_du lg(mu)  ||d||  lg(rg) alpha_du alpha_pr  ls
 230 -2.6253497e-01 1.09e+01 6.41e-01  -7.5 2.19e+03 -12.5 6.67e-01 3.19e-01H  1
 231 -2.6253554e-01 8.70e+00 2.27e-01  -7.5 7.37e+02    -  7.00e-01 1.00e+00h  1
 232 -2.6253540e-01 4.83e-01 3.88e-03  -7.5 1.82e+02    -  1.00e+00 1.00e+00h  1
 233 -2.6253541e-01 6.84e-03 3.00e-05  -7.5 2.02e+01    -  1.00e+00 1.00e+00h  1
 234 -2.6253541e-01 6.57e-09 1.02e-10  -7.5 2.46e-02    -  1.00e+00 1.00e+00h  1
 235 -2.6253690e-01 6.46e-01 5.72e+00  -9.0 1.73e+03    -  5.16e-01 1.16e-01h  1
 236 -2.6253930e-01 3.64e+01 4.66e+00  -9.0 7.05e+03    -  2.36e-01 2.12e-01h  1
 237 -2.6254094e-01 4.84e+01 2.84e+00  -9.0 3.47e+03    -  2.95e-01 3.40e-01h  1
 238 -2.6254257e-01 3.89e+01 7.29e+01  -9.0 1.55e+03    -  4.53e-02 7.81e-01h  1
 239 -2.6254266e-01 3.83e+01 7.26e+01  -9.0 5.47e+03    -  1.69e-02 3.68e-02h  1
iter    objective    inf_pr   inf_du lg(mu)  ||d||  lg(rg) alpha_du alpha_pr  ls
 240 -2.6254268e-01 3.72e+01 5.03e+01  -9.0 1.67e+03    -  3.85e-01 2.84e-02h  1
 241 -2.6254301e-01 3.09e+01 6.86e+03  -9.0 1.61e+03    -  1.72e-03 4.16e-01h  1
 242 -2.6254362e-01 3.87e+01 1.26e+03  -9.0 1.53e+03    -  1.59e-02 8.16e-01h  1
 243 -2.6254368e-01 2.87e+01 7.80e+02  -9.0 1.55e+03    -  1.37e-01 3.81e-01h  1
 244 -2.6254386e-01 2.66e+01 5.65e+02  -9.0 1.81e+03    -  4.25e-01 2.76e-01h  1
 245 -2.6254402e-01 2.22e+01 4.02e+02  -9.0 1.26e+03    -  4.90e-02 2.89e-01h  1
 246 -2.6254403e-01 2.02e+01 3.66e+02  -9.0 5.59e+02    -  3.64e-02 8.98e-02h  1
 247 -2.6254406e-01 1.63e+01 2.95e+02  -9.0 5.36e+02    -  2.20e-01 1.94e-01h  1
 248 -2.6254407e-01 1.48e+01 2.67e+02  -9.0 5.98e+02    -  4.72e-02 9.46e-02h  1
 249 -2.6254419e-01 4.13e-01 2.25e+00  -9.0 1.75e+02    -  1.03e-01 1.00e+00h  1
iter    objective    inf_pr   inf_du lg(mu)  ||d||  lg(rg) alpha_du alpha_pr  ls
 250 -2.6254421e-01 2.96e+00 2.90e-01  -9.0 3.72e+02    -  7.36e-01 1.00e+00h  1
 251 -2.6254421e-01 1.59e-01 1.98e-01  -9.0 6.60e+01    -  3.18e-01 1.00e+00h  1
 252 -2.6254421e-01 2.19e-02 2.86e-07  -9.0 1.89e+01 -11.1 1.00e+00 1.00e+00h  1
 253 -2.6254449e-01 6.23e+01 2.57e-02  -9.0 4.88e+03    -  4.22e-02 4.71e-01h  1
 254 -2.6254438e-01 5.35e+01 3.33e-02  -9.0 2.91e+03    -  6.58e-01 2.34e-01h  3
 255 -2.6254446e-01 3.63e-01 4.19e-02  -9.0 1.16e+02 -11.6 2.74e-01 1.00e+00h  1
 256 -2.6254470e-01 2.37e+01 1.32e-02  -9.0 1.09e+04    -  2.08e-01 1.25e-01h  2
 257 -2.6254478e-01 8.65e-01 3.76e-04  -9.0 2.32e+02 -12.1 1.00e+00 1.00e+00h  1
 258 -2.6254495e-01 8.40e+00 7.47e-04  -9.0 7.92e+02 -12.6 1.00e+00 1.00e+00h  1
 259 -2.6254554e-01 7.87e+01 8.58e-03  -9.0 3.34e+03 -13.0 5.73e-01 7.05e-01h  1
iter    objective    inf_pr   inf_du lg(mu)  ||d||  lg(rg) alpha_du alpha_pr  ls
 260 -2.6254527e-01 1.76e+01 3.60e-01  -9.0 1.15e+03    -  2.26e-01 1.00e+00h  1
 261 -2.6254560e-01 3.80e+01 3.98e-01  -9.0 4.58e+04 -12.6 5.01e-03 2.62e-02h  1
 262 -2.6254538e-01 9.68e+00 1.23e-01  -9.0 8.33e+02    -  4.88e-01 1.00e+00h  1
 263 -2.6254607e-01 6.59e+01 8.31e-02  -9.0 5.46e+03 -12.2 2.18e-01 3.22e-01H  1
 264 -2.6254601e-01 6.59e+01 8.89e-02  -9.0 2.29e+04    -  1.66e-04 7.71e-03h  4
 265 -2.6254651e-01 3.61e+01 1.15e-02  -9.0 1.44e+03 -12.7 7.49e-01 1.00e+00h  1
 266 -2.6254658e-01 3.58e+01 4.00e-02  -9.0 6.58e+03    -  2.16e-01 3.58e-02h  3
 267 -2.6254672e-01 3.56e+01 1.28e-01  -9.0 4.22e+03    -  9.88e-01 1.07e-01h  2
 268 -2.6254733e-01 4.14e+01 1.02e-01  -9.0 1.85e+03    -  2.55e-02 1.00e+00H  1
 269 -2.6254759e-01 3.93e+01 1.01e+00  -9.0 1.36e+03    -  3.60e-01 1.00e+00h  1
iter    objective    inf_pr   inf_du lg(mu)  ||d||  lg(rg) alpha_du alpha_pr  ls
 270 -2.6254768e-01 3.80e+01 5.86e-01  -9.0 2.60e+03    -  3.83e-01 2.22e-01h  1
 271 -2.6254780e-01 2.74e+01 1.66e+00  -9.0 1.14e+03    -  1.70e-01 7.82e-01h  1
 272 -2.6254761e-01 2.11e+01 1.31e+00  -9.0 1.01e+03    -  1.69e-01 8.57e-01h  1
 273 -2.6254765e-01 1.52e-01 2.39e-02  -9.0 6.07e+01    -  1.00e+00 1.00e+00h  1
 274 -2.6254769e-01 4.87e-01 5.11e-03  -9.0 3.06e+02 -13.1 8.87e-01 1.00e+00H  1
 275 -2.6254774e-01 2.25e-01 8.04e-04  -9.0 2.90e+02    -  1.00e+00 1.00e+00H  1
 276 -2.6254772e-01 2.99e-02 2.82e-04  -9.0 1.59e+02    -  1.00e+00 1.00e+00H  1
 277 -2.6254772e-01 1.14e-02 5.04e-07  -9.0 2.20e+01    -  1.00e+00 1.00e+00h  1
 278 -2.6254772e-01 8.28e-06 1.57e-09  -9.0 5.79e-01    -  1.00e+00 1.00e+00h  1
 279 -2.6254772e-01 2.83e-10 2.33e-14  -9.0 3.36e-04    -  1.00e+00 1.00e+00h  1

Number of Iterations....: 279

                                   (scaled)                 (unscaled)
Objective...............:  -2.6254772445109215e-01   -2.6254772445109215e-01
Dual infeasibility......:   2.3272752898079917e-14    2.3272752898079917e-14
Constraint violation....:   2.8300031686568500e-10    2.8300031686568500e-10
Complementarity.........:   9.0909091612063974e-10    9.0909091612063974e-10
Overall NLP error.......:   9.0909091612063974e-10    9.0909091612063974e-10


Number of objective function evaluations             = 483
Number of objective gradient evaluations             = 280
Number of equality constraint evaluations            = 483
Number of inequality constraint evaluations          = 484
Number of equality constraint Jacobian evaluations   = 281
Number of inequality constraint Jacobian evaluations = 281
Number of Lagrangian Hessian evaluations             = 279
Total CPU secs in IPOPT (w/o function evaluations)   =    614.986
Total CPU secs in NLP function evaluations           =      9.721

EXIT: Optimal Solution Found.
